\* SocialCAV *\
Maximize
obj: 3.61395298737 _var0_0 + 8.61846175587 _var0_1 + 6.79670268384 _var0_2
 + 6.47386280593 _var10_0 + 4.3747243808 _var10_1 + 5.57033684697 _var10_2
 + 6.26810370241 _var11_0 + 5.43044908671 _var11_1 + 5.65277576336 _var11_2
 + 7.37090720971 _var12_0 + 5.2431803038 _var12_1 + 4.58723183132 _var12_2
 + 7.65067150135 _var13_0 + 4.57829545056 _var13_1 + 5.76289361031 _var13_2
 + 3.82126662768 _var14_0 + 6.51575377864 _var14_1 + 7.23831224344 _var14_2
 + 4.06423200758 _var1_0 + 5.60158808364 _var1_1 + 4.22858437291 _var1_2
 + 5.33486281115 _var2_0 + 4.4383649456 _var2_1 + 8.33829211236 _var2_2
 + 7.36509623399 _var3_0 + 5.65537015941 _var3_1 + 4.15882174617 _var4_0
 + 3.34276958258 _var4_1 + 2.28859581202 _var4_2 + 6.33504469486 _var5_0
 + 5.92632620395 _var5_1 + 5.47625071638 _var5_2 + 4.1054191587 _var6_0
 + 4.64538717472 _var6_1 + 6.46565030861 _var6_2 + 2.50869776539 _var7_0
 + 5.24469793761 _var7_1 + 3.5975129542 _var7_2 + 8.04646079858 _var8_0
 + 3.42154897029 _var8_1 + 3.36239587195 _var8_2 + 4.75227452491 _var9_0
 + 5.91519272424 _var9_1 + 4.30668553765 _var9_2
Subject To
C_utility_ag_var0_0: _var0_0 + _var0_1 + _var0_2 <= 1
C_utility_ag_var0_1: _var0_0 + _var0_1 + _var0_2 <= 1
C_utility_ag_var0_2: _var0_0 + _var0_1 + _var0_2 <= 1
C_utility_ag_var10_0: _var10_0 + _var10_1 + _var10_2 <= 1
C_utility_ag_var10_1: _var10_0 + _var10_1 + _var10_2 <= 1
C_utility_ag_var10_2: _var10_0 + _var10_1 + _var10_2 <= 1
C_utility_ag_var11_0: _var11_0 + _var11_1 + _var11_2 <= 1
C_utility_ag_var11_1: _var11_0 + _var11_1 + _var11_2 <= 1
C_utility_ag_var11_2: _var11_0 + _var11_1 + _var11_2 <= 1
C_utility_ag_var12_0: _var12_0 + _var12_1 + _var12_2 <= 1
C_utility_ag_var12_1: _var12_0 + _var12_1 + _var12_2 <= 1
C_utility_ag_var12_2: _var12_0 + _var12_1 + _var12_2 <= 1
C_utility_ag_var13_0: _var13_0 + _var13_1 + _var13_2 <= 1
C_utility_ag_var13_1: _var13_0 + _var13_1 + _var13_2 <= 1
C_utility_ag_var13_2: _var13_0 + _var13_1 + _var13_2 <= 1
C_utility_ag_var14_0: _var14_0 + _var14_1 + _var14_2 <= 1
C_utility_ag_var14_1: _var14_0 + _var14_1 + _var14_2 <= 1
C_utility_ag_var14_2: _var14_0 + _var14_1 + _var14_2 <= 1
C_utility_ag_var1_0: _var1_0 + _var1_1 + _var1_2 <= 1
C_utility_ag_var1_1: _var1_0 + _var1_1 + _var1_2 <= 1
C_utility_ag_var1_2: _var1_0 + _var1_1 + _var1_2 <= 1
C_utility_ag_var2_0: _var2_0 + _var2_1 + _var2_2 <= 1
C_utility_ag_var2_1: _var2_0 + _var2_1 + _var2_2 <= 1
C_utility_ag_var2_2: _var2_0 + _var2_1 + _var2_2 <= 1
C_utility_ag_var3_0: _var3_0 + _var3_1 <= 1
C_utility_ag_var3_1: _var3_0 + _var3_1 <= 1
C_utility_ag_var4_0: _var4_0 + _var4_1 + _var4_2 <= 1
C_utility_ag_var4_1: _var4_0 + _var4_1 + _var4_2 <= 1
C_utility_ag_var4_2: _var4_0 + _var4_1 + _var4_2 <= 1
C_utility_ag_var5_0: _var5_0 + _var5_1 + _var5_2 <= 1
C_utility_ag_var5_1: _var5_0 + _var5_1 + _var5_2 <= 1
C_utility_ag_var5_2: _var5_0 + _var5_1 + _var5_2 <= 1
C_utility_ag_var6_0: _var6_0 + _var6_1 + _var6_2 <= 1
C_utility_ag_var6_1: _var6_0 + _var6_1 + _var6_2 <= 1
C_utility_ag_var6_2: _var6_0 + _var6_1 + _var6_2 <= 1
C_utility_ag_var7_0: _var7_0 + _var7_1 + _var7_2 <= 1
C_utility_ag_var7_1: _var7_0 + _var7_1 + _var7_2 <= 1
C_utility_ag_var7_2: _var7_0 + _var7_1 + _var7_2 <= 1
C_utility_ag_var8_0: _var8_0 + _var8_1 + _var8_2 <= 1
C_utility_ag_var8_1: _var8_0 + _var8_1 + _var8_2 <= 1
C_utility_ag_var8_2: _var8_0 + _var8_1 + _var8_2 <= 1
C_utility_ag_var9_0: _var9_0 + _var9_1 + _var9_2 <= 1
C_utility_ag_var9_1: _var9_0 + _var9_1 + _var9_2 <= 1
C_utility_ag_var9_2: _var9_0 + _var9_1 + _var9_2 <= 1
congestion_comput_ag0: _var0_1 + _var0_2 + _var10_1 + _var10_2 + _var11_1
 + _var11_2 + _var12_1 + _var12_2 + _var13_1 + _var13_2 + _var14_1 + _var14_2
 + _var1_1 + _var1_2 + _var2_1 + _var2_2 + _var3_1 + _var4_1 + _var4_2
 + _var5_1 + _var5_2 + _var6_1 + _var6_2 + _var7_1 + _var7_2 + _var8_1
 + _var8_2 + _var9_1 + _var9_2 <= 8
congestion_comput_ag1: _var0_0 + _var0_2 + _var10_0 + _var10_2 + _var11_0
 + _var11_2 + _var12_0 + _var12_2 + _var13_0 + _var13_2 + _var14_0 + _var14_2
 + _var1_0 + _var1_2 + _var2_0 + _var2_2 + _var3_0 + _var4_0 + _var4_2
 + _var5_0 + _var5_2 + _var6_0 + _var6_2 + _var7_0 + _var7_2 + _var8_0
 + _var8_2 + _var9_0 + _var9_2 <= 8
congestion_comput_ag2: _var0_0 + _var0_1 + _var10_0 + _var10_1 + _var11_0
 + _var11_1 + _var12_0 + _var12_1 + _var13_0 + _var13_1 + _var14_0 + _var14_1
 + _var1_0 + _var1_1 + _var2_0 + _var2_1 + _var3_0 + _var3_1 + _var4_0
 + _var4_1 + _var5_0 + _var5_1 + _var6_0 + _var6_1 + _var7_0 + _var7_1
 + _var8_0 + _var8_1 + _var9_0 + _var9_1 <= 8
Binaries
_var0_0
_var0_1
_var0_2
_var10_0
_var10_1
_var10_2
_var11_0
_var11_1
_var11_2
_var12_0
_var12_1
_var12_2
_var13_0
_var13_1
_var13_2
_var14_0
_var14_1
_var14_2
_var1_0
_var1_1
_var1_2
_var2_0
_var2_1
_var2_2
_var3_0
_var3_1
_var4_0
_var4_1
_var4_2
_var5_0
_var5_1
_var5_2
_var6_0
_var6_1
_var6_2
_var7_0
_var7_1
_var7_2
_var8_0
_var8_1
_var8_2
_var9_0
_var9_1
_var9_2
End
